% seed = 8192722

mint = 37;
% maxt = 119;

nActs = 22;
dur = [0,10,8,8,6,9,9,5,1,1,4,7,7,6,2,5,4,8,3,6,10,0];

nSkills = 4;
sreq = [| 0,0,0,0,
	| 2,3,3,2,
	| 1,1,2,2,
	| 3,0,0,1,
	| 2,2,1,3,
	| 1,3,3,0,
	| 3,2,1,1,
	| 1,0,2,2,
	| 2,3,0,0,
	| 0,0,3,2,
	| 0,2,1,0,
	| 0,3,0,3,
	| 0,2,1,1,
	| 1,2,3,2,
	| 3,3,1,0,
	| 2,1,3,0,
	| 0,1,3,3,
	| 0,1,0,3,
	| 0,1,3,2,
	| 1,2,2,2,
	| 1,1,1,2,
	| 0,0,0,0, |];

nResources = 20;
mastery = [| false,false,false,true,
	| false,false,true,true,
	| false,true,false,true,
	| false,true,true,false,
	| false,false,false,true,
	| true,false,false,true,
	| false,false,false,true,
	| false,false,true,false,
	| true,true,false,true,
	| true,true,false,true,
	| false,true,true,true,
	| false,false,false,true,
	| true,true,false,true,
	| false,true,false,false,
	| false,false,false,true,
	| false,false,true,false,
	| true,true,true,false,
	| true,false,true,false,
	| true,false,true,true,
	| true,false,false,true, |];

nPrecs = 31;
pred = [1,1,1,2,2,3,4,4,4,5,5,5,6,7,8,8,9,10,10,11,12,13,14,15,16,16,17,18,19,20,21];
succ = [2,3,4,12,6,9,5,14,8,11,15,7,10,17,20,12,18,17,13,16,13,20,21,17,19,20,21,21,22,22,22];

nUnrels = 130;
unpred = [2,2,2,2,2,2,2,2,2,2,2,2,3,3,3,3,3,3,3,3,3,3,3,3,3,3,3,4,4,4,4,5,5,5,5,5,5,5,5,6,6,6,6,6,6,6,6,6,6,7,7,7,7,7,7,7,7,7,7,7,7,8,8,8,8,8,8,8,8,8,8,9,9,9,9,9,9,9,9,9,9,10,10,10,10,10,10,10,11,11,11,11,11,11,11,12,12,12,12,12,12,12,13,13,13,13,13,13,13,14,14,14,14,14,14,15,15,15,15,16,16,16,17,17,17,18,18,19,19,20];
unsucc = [3,4,5,7,8,9,11,14,15,16,18,19,4,5,6,7,8,10,11,12,13,14,15,16,17,19,20,6,9,10,18,6,8,9,10,12,13,14,18,7,8,9,11,12,14,15,16,18,19,8,9,10,11,12,13,14,15,16,18,19,20,9,10,11,14,15,16,17,18,19,21,10,11,12,13,14,15,16,17,19,20,11,12,14,15,16,18,19,12,13,14,15,17,18,21,14,15,16,17,18,19,21,14,15,16,17,18,19,21,15,16,17,18,19,20,16,18,19,20,17,18,21,18,19,20,19,20,20,21,21];

USEFUL_RES = [{},
	{1,2,3,4,5,6,7,8,9,10,11,12,13,14,15,16,17,18,19,20},
	{1,2,3,4,5,6,7,8,9,10,11,12,13,14,15,16,17,18,19,20},
	{1,2,3,5,6,7,9,10,11,12,13,15,17,18,19,20},
	{1,2,3,4,5,6,7,8,9,10,11,12,13,14,15,16,17,18,19,20},
	{2,3,4,6,8,9,10,11,13,14,16,17,18,19,20},
	{1,2,3,4,5,6,7,8,9,10,11,12,13,14,15,16,17,18,19,20},
	{1,2,3,4,5,6,7,8,9,10,11,12,13,15,16,17,18,19,20},
	{3,4,6,9,10,11,13,14,17,18,19,20},
	{1,2,3,4,5,6,7,8,9,10,11,12,13,15,16,17,18,19,20},
	{2,3,4,8,9,10,11,13,14,16,17,18,19},
	{1,2,3,4,5,6,7,9,10,11,12,13,14,15,17,19,20},
	{1,2,3,4,5,6,7,8,9,10,11,12,13,14,15,16,17,18,19,20},
	{1,2,3,4,5,6,7,8,9,10,11,12,13,14,15,16,17,18,19,20},
	{2,3,4,6,8,9,10,11,13,14,16,17,18,19,20},
	{2,3,4,6,8,9,10,11,13,14,16,17,18,19,20},
	{1,2,3,4,5,6,7,8,9,10,11,12,13,14,15,16,17,18,19,20},
	{1,2,3,4,5,6,7,9,10,11,12,13,14,15,17,19,20},
	{1,2,3,4,5,6,7,8,9,10,11,12,13,14,15,16,17,18,19,20},
	{1,2,3,4,5,6,7,8,9,10,11,12,13,14,15,16,17,18,19,20},
	{1,2,3,4,5,6,7,8,9,10,11,12,13,14,15,16,17,18,19,20},
	{}];

POTENTIAL_ACT = [{2,3,4,5,7,8,10,12,13,14,17,18,19,20,21},
	{2,3,4,5,6,7,8,10,11,12,13,14,15,16,17,18,19,20,21},
	{2,3,4,5,6,7,8,9,10,11,12,13,14,15,16,17,18,19,20,21},
	{2,3,5,6,7,8,9,10,11,12,13,14,15,16,17,18,19,20,21},
	{2,3,4,5,7,8,10,12,13,14,17,18,19,20,21},
	{2,3,4,5,6,7,8,9,10,12,13,14,15,16,17,18,19,20,21},
	{2,3,4,5,7,8,10,12,13,14,17,18,19,20,21},
	{2,3,5,6,7,8,10,11,13,14,15,16,17,19,20,21},
	{2,3,4,5,6,7,8,9,10,11,12,13,14,15,16,17,18,19,20,21},
	{2,3,4,5,6,7,8,9,10,11,12,13,14,15,16,17,18,19,20,21},
	{2,3,4,5,6,7,8,9,10,11,12,13,14,15,16,17,18,19,20,21},
	{2,3,4,5,7,8,10,12,13,14,17,18,19,20,21},
	{2,3,4,5,6,7,8,9,10,11,12,13,14,15,16,17,18,19,20,21},
	{2,3,5,6,7,9,11,12,13,14,15,16,17,18,19,20,21},
	{2,3,4,5,7,8,10,12,13,14,17,18,19,20,21},
	{2,3,5,6,7,8,10,11,13,14,15,16,17,19,20,21},
	{2,3,4,5,6,7,8,9,10,11,12,13,14,15,16,17,18,19,20,21},
	{2,3,4,5,6,7,8,9,10,11,13,14,15,16,17,19,20,21},
	{2,3,4,5,6,7,8,9,10,11,12,13,14,15,16,17,18,19,20,21},
	{2,3,4,5,6,7,8,9,10,12,13,14,15,16,17,18,19,20,21}];
